
Gurobi 10.0.0 (win64) logging started Thu May 30 15:25:25 2024

Set parameter LogFile to value "C:\Users\ealvarezq\Documents\GitHub\Comillas\Models\JointResearch\05. Models\06.Benchmarking\L.Cont_Investments_per_hour\9n_mod1_ByStages_nc10/openStarNet_9n_mod1_ByStages_nc10.log"
Set parameter Method to value 2
Set parameter MIPFocus to value 1
Set parameter Presolve to value 2
Set parameter RINS to value 100
Set parameter MIPGap to value 0.01
Set parameter Threads to value 9
Set parameter TimeLimit to value 259200
Set parameter IterationLimit to value 760000000
Gurobi Optimizer version 10.0.0 build v10.0.0rc2 (win64)

CPU model: Intel(R) Core(TM) i7-8700 CPU @ 3.20GHz, instruction set [SSE2|AVX|AVX2]
Thread count: 6 physical cores, 12 logical processors, using up to 9 threads

Optimize a model with 2623 rows, 1429 columns and 7958 nonzeros
Model fingerprint: 0x746b49ac
Variable types: 1393 continuous, 36 integer (36 binary)
Coefficient statistics:
  Matrix range     [9e-04, 1e+04]
  Objective range  [1e+00, 1e+00]
  Bounds range     [3e-03, 2e+00]
  RHS range        [9e-04, 1e+00]
Presolve removed 893 rows and 473 columns
Presolve time: 0.01s
Presolved: 1730 rows, 956 columns, 5920 nonzeros
Variable types: 920 continuous, 36 integer (36 binary)
Found heuristic solution: objective 3423.2775797
Root relaxation presolved: 1730 rows, 956 columns, 5920 nonzeros

Root barrier log...

Ordering time: 0.03s

Barrier statistics:
 AA' NZ     : 4.497e+04
 Factor NZ  : 2.356e+05 (roughly 3 MB of memory)
 Factor Ops : 5.204e+07 (less than 1 second per iteration)
 Threads    : 9

                  Objective                Residual
Iter       Primal          Dual         Primal    Dual     Compl     Time
   0   4.68291135e+05 -3.32323268e+07  7.00e+00 1.50e+03  3.66e+04     0s
   1   5.04264943e+04 -1.33721339e+07  7.26e-01 9.46e-11  5.18e+03     0s
   2   1.00287933e+04 -9.37035958e+06  2.26e-02 5.34e-10  2.73e+03     0s
   3   4.23687803e+03 -1.84147657e+05  8.44e-15 5.97e-11  5.43e+01     0s
   4   1.32577054e+03 -1.62335872e+04  2.04e-14 8.30e-12  5.06e+00     0s
   5   6.19115302e+02 -3.43464155e+03  1.51e-14 5.35e-12  1.17e+00     0s
   6   2.44074432e+02 -3.37039829e+02  1.69e-14 6.59e-12  1.67e-01     0s
   7   1.18854010e+02 -3.78582250e+01  8.88e-14 7.71e-12  4.51e-02     0s
   8   7.18102188e+01  3.76106119e+01  1.39e-13 4.43e-12  9.85e-03     0s
   9   5.86574040e+01  5.32011186e+01  1.29e-13 6.81e-12  1.57e-03     0s
  10   5.71306468e+01  5.56047234e+01  4.00e-12 4.53e-12  4.39e-04     0s
  11   5.69657573e+01  5.62214226e+01  4.14e-11 5.69e-12  2.14e-04     0s
  12   5.67674825e+01  5.64910268e+01  3.99e-11 4.15e-12  7.96e-05     0s
  13   5.67106506e+01  5.65876376e+01  4.52e-11 3.44e-12  3.54e-05     0s
  14   5.66988839e+01  5.66913031e+01  1.05e-11 4.04e-12  2.18e-06     0s
  15   5.66975018e+01  5.66968118e+01  4.13e-12 7.75e-12  1.99e-07     0s
  16   5.66973915e+01  5.66973751e+01  1.58e-11 5.72e-12  4.70e-09     0s
  17   5.66973888e+01  5.66973888e+01  9.15e-12 7.33e-12  2.62e-13     0s

Barrier solved model in 17 iterations and 0.10 seconds (0.06 work units)
Optimal objective 5.66973888e+01


Root relaxation: objective 5.669739e+01, 193 iterations, 0.09 seconds (0.05 work units)

    Nodes    |    Current Node    |     Objective Bounds      |     Work
 Expl Unexpl |  Obj  Depth IntInf | Incumbent    BestBd   Gap | It/Node Time

     0     0   56.69739    0    7 3423.27758   56.69739  98.3%     -    0s
H    0     0                      61.6127737   56.69739  7.98%     -    0s
     0     0   60.20828    0    2   61.61277   60.20828  2.28%     -    0s
     0     0   60.20828    0    2   61.61277   60.20828  2.28%     -    0s
     0     0   60.21746    0    2   61.61277   60.21746  2.26%     -    0s

Cutting planes:
  Gomory: 1
  MIR: 28
  Relax-and-lift: 1

Explored 1 nodes (241 simplex iterations) in 0.16 seconds (0.09 work units)
Thread count was 9 (of 12 available processors)

Solution count 2: 61.6128 3423.28 

Optimal solution found (tolerance 1.00e-02)
Best objective 6.161277365753e+01, best bound 6.118303178435e+01, gap 0.6975%

Gurobi 10.0.0 (win64) logging started Thu May 30 15:25:26 2024

Set parameter LogFile to value "C:\Users\ealvarezq\Documents\GitHub\Comillas\Models\JointResearch\05. Models\06.Benchmarking\L.Cont_Investments_per_hour\9n_mod1_ByStages_nc10/openStarNet_9n_mod1_ByStages_nc10.log"
Set parameter Method to value 2
Set parameter MIPFocus to value 1
Set parameter Presolve to value 2
Set parameter RINS to value 100
Set parameter MIPGap to value 0.01
Set parameter Threads to value 9
Set parameter TimeLimit to value 259200
Set parameter IterationLimit to value 760000000
Gurobi Optimizer version 10.0.0 build v10.0.0rc2 (win64)

CPU model: Intel(R) Core(TM) i7-8700 CPU @ 3.20GHz, instruction set [SSE2|AVX|AVX2]
Thread count: 6 physical cores, 12 logical processors, using up to 9 threads

Optimize a model with 2623 rows, 1393 columns and 6482 nonzeros
Model fingerprint: 0x0dfa7398
Coefficient statistics:
  Matrix range     [9e-04, 1e+04]
  Objective range  [1e+00, 1e+00]
  Bounds range     [3e-03, 2e+00]
  RHS range        [9e-04, 2e+01]
Presolve removed 2391 rows and 923 columns
Presolve time: 0.00s
Presolved: 232 rows, 480 columns, 1034 nonzeros

Ordering time: 0.00s

Barrier statistics:
 AA' NZ     : 5.100e+02
 Factor NZ  : 2.296e+03
 Factor Ops : 2.993e+04 (less than 1 second per iteration)
 Threads    : 1

                  Objective                Residual
Iter       Primal          Dual         Primal    Dual     Compl     Time
   0   5.06802243e+05 -2.05174533e+07  6.31e+00 1.54e+03  9.31e+04     0s
   1   7.60531510e+04 -1.00574921e+07  7.71e-01 5.82e-11  1.54e+04     0s
   2   1.79368219e+04 -2.75610006e+06  2.38e-02 5.82e-11  2.63e+03     0s
   3   7.90445474e+03 -7.27421443e+04  2.11e-15 5.09e-11  7.39e+01     0s
   4   1.30058260e+03 -6.33376270e+03  2.11e-15 1.46e-11  6.99e+00     0s
   5   6.24893504e+02 -1.61236876e+03  7.77e-16 4.52e-12  2.05e+00     0s
   6   2.69962481e+02 -5.93517779e+02  1.44e-15 8.75e-12  7.91e-01     0s
   7   1.04409670e+02 -1.23305785e+02  6.66e-16 5.16e-12  2.09e-01     0s
   8   7.98852519e+01  2.65290620e+01  5.55e-16 1.72e-11  4.89e-02     0s
   9   6.84835022e+01  5.55594708e+01  3.33e-15 6.50e-12  1.18e-02     0s
  10   6.33054003e+01  6.07588880e+01  8.60e-15 8.08e-12  2.33e-03     0s
  11   6.20001957e+01  6.14253988e+01  2.18e-14 2.39e-11  5.26e-04     0s
  12   6.17540904e+01  6.15508795e+01  9.60e-15 9.89e-12  1.86e-04     0s
  13   6.16527819e+01  6.15907343e+01  1.29e-14 1.51e-11  5.68e-05     0s
  14   6.16269866e+01  6.16060786e+01  1.83e-14 3.67e-12  1.91e-05     0s
  15   6.16133370e+01  6.16123709e+01  1.82e-14 7.43e-12  8.85e-07     0s
  16   6.16127742e+01  6.16127732e+01  6.94e-15 5.34e-12  9.06e-10     0s
  17   6.16127737e+01  6.16127737e+01  5.61e-15 1.95e-11  9.06e-13     0s

Barrier solved model in 17 iterations and 0.01 seconds (0.01 work units)
Optimal objective 6.16127737e+01

Crossover log...

     105 DPushes remaining with DInf 0.0000000e+00                 0s
       0 DPushes remaining with DInf 0.0000000e+00                 0s

       0 PPushes remaining with PInf 0.0000000e+00                 0s

  Push phase complete: Pinf 0.0000000e+00, Dinf 2.9608932e-13      0s

Iteration    Objective       Primal Inf.    Dual Inf.      Time
      10    6.1612774e+01   0.000000e+00   0.000000e+00      0s

Solved in 10 iterations and 0.01 seconds (0.01 work units)
Optimal objective  6.161277366e+01
